(declare-const rvalue_i (_ BitVec 32))
(declare-const lvalue_i (_ BitVec 32))
(declare-const rreturn (_ BitVec 32))
(declare-const lreturn (_ BitVec 32))
(assert (and (= rreturn rvalue_i) (= lreturn lvalue_i)))